# Objective value = 6.9562799999999988e+03
I_0_0 688
I_0_1 980
I_0_2 896
I_0_3 775
I_0_4 789
I_0_5 792
I_0_6 1.0839999999999998e+03
I_1_0 26
I_1_1 0
I_1_2 26
I_1_3 26
I_1_4 0
I_1_5 26
I_1_6 2.8865798640254070e-15
I_2_0 75
I_2_1 0
I_2_2 75
I_2_3 75
I_2_4 0
I_2_5 7.4999999999999972e+01
I_2_6 8.3266726846886741e-15
I_3_0 166
I_3_1 83
I_3_2 2.8421709430404007e-14
I_3_3 1.6600000000000003e+02
I_3_4 166
I_3_5 8.2999999999999986e+01
I_3_6 -1.4210854715202004e-14
I_4_0 42
I_4_1 21
I_4_2 -7.1054273576010019e-15
I_4_3 42
I_4_4 4.2000000000000014e+01
I_4_5 21
I_4_6 0
I_5_0 87
I_5_1 0
I_5_2 87
I_5_3 0
I_5_4 87
I_5_5 87
I_5_6 0
q_1_0 0
q_1_1 52
q_1_2 26
q_1_3 0
q_1_4 52
q_1_5 2.8865798640254070e-15
q_2_0 0
q_2_1 150
q_2_2 75
q_2_3 0
q_2_4 1.4999999999999997e+02
q_2_5 3.6748382115092681e-14
q_3_0 0
q_3_1 0
q_3_2 249
q_3_3 8.3000000000000014e+01
q_3_4 0
q_3_5 0
q_4_0 0
q_4_1 0
q_4_2 6.3000000000000007e+01
q_4_3 2.1000000000000014e+01
q_4_4 -1.4210854715202004e-14
q_4_5 0
q_5_0 0
q_5_1 174
q_5_2 0
q_5_3 174
q_5_4 87
q_5_5 0
y_0_0 0
y_0_1 1
y_0_2 1
y_0_3 1
y_0_4 1
y_0_5 5.5511151231257827e-17
y_1_0 0
y_1_1 1
y_1_2 1
y_1_3 0
y_1_4 1
y_1_5 1.1102230246251565e-16
y_2_0 0
y_2_1 1
y_2_2 1
y_2_3 0
y_2_4 9.9999999999999967e-01
y_2_5 1.1102230246251565e-16
y_3_0 0
y_3_1 0
y_3_2 1
y_3_3 1
y_3_4 -1.1102230246251565e-16
y_3_5 0
y_4_0 0
y_4_1 0
y_4_2 1
y_4_3 1
y_4_4 -1.1102230246251565e-16
y_4_5 0
y_5_0 0
y_5_1 1
y_5_2 0
y_5_3 1
y_5_4 1
y_5_5 0
x_0_1_0 0
x_0_1_1 1
x_0_1_2 1
x_0_1_3 0
x_0_1_4 1.0000000000000004e+00
x_0_1_5 2.2204460492503131e-16
x_0_2_0 0
x_0_2_1 0
x_0_2_2 1
x_0_2_3 0
x_0_2_4 -1.3322676295501878e-15
x_0_2_5 -2.2204460492503131e-16
x_0_3_0 0
x_0_3_1 0
x_0_3_2 0
x_0_3_3 1
x_0_3_4 0
x_0_3_5 0
x_0_4_0 0
x_0_4_1 0
x_0_4_2 0
x_0_4_3 0
x_0_4_4 0
x_0_4_5 0
x_0_5_0 0
x_0_5_1 1
x_0_5_2 0
x_0_5_3 1
x_0_5_4 1.0000000000000004e+00
x_0_5_5 0
x_1_2_0 0
x_1_2_1 1
x_1_2_2 0
x_1_2_3 0
x_1_2_4 1.0000000000000009e+00
x_1_2_5 0
x_1_3_0 0
x_1_3_1 0
x_1_3_2 1
x_1_3_3 0
x_1_3_4 -1.1102230246251565e-16
x_1_3_5 0
x_1_4_0 0
x_1_4_1 0
x_1_4_2 0
x_1_4_3 0
x_1_4_4 0
x_1_4_5 0
x_1_5_0 0
x_1_5_1 0
x_1_5_2 0
x_1_5_3 0
x_1_5_4 0
x_1_5_5 0
x_2_3_0 0
x_2_3_1 0
x_2_3_2 0
x_2_3_3 0
x_2_3_4 0
x_2_3_5 0
x_2_4_0 0
x_2_4_1 0
x_2_4_2 1
x_2_4_3 0
x_2_4_4 0
x_2_4_5 0
x_2_5_0 0
x_2_5_1 1
x_2_5_2 0
x_2_5_3 0
x_2_5_4 9.9999999999999956e-01
x_2_5_5 1.1102230246251565e-16
x_3_4_0 0
x_3_4_1 0
x_3_4_2 1
x_3_4_3 1
x_3_4_4 -1.1102230246251565e-16
x_3_4_5 0
x_3_5_0 0
x_3_5_1 0
x_3_5_2 0
x_3_5_3 0
x_3_5_4 0
x_3_5_5 0
x_4_5_0 0
x_4_5_1 0
x_4_5_2 0
x_4_5_3 1
x_4_5_4 -1.1102230246251565e-16
x_4_5_5 -1.1102230246251565e-16
